30
47
145
99
39
216
68
37
266
0
125
37
64
60
30
35
75
244
35
43
33
0
552
52
67
112
52
153
53
63
23
0
183
0
0
73
128
22
21
57
38
168
20
35
0
145
61
139
21
1009
76
37
59
56
108
45
34
46
108
31
93
30
34
41
0
34
37
34
0
31
60
233
36
0
98
46
21
110
33
111
147
57
46
50
29
54
93
365
183
59
35
113
127
90
0
105
90
71
31
205
